TCS_Benchmarks/redos_fix/snort3_output_distinct_4484_4483_0_0.txt
([^}]*)(\s*)
([^}]*)([pP][oO][iI][nN][tT][eE][rR]-[eE][vV][eE][nN][tT][sS])(\s*)